p cnf 7230 16
-4986 -6449 -6452 0
-6450 6452 0
-4400 -6311 -6453 0
4400 -6454 0
6453 6454 0
6449 6450 0
6447 6448 0
6301 -6448 0
-6301 -6447 0
6311 -6454 0
4986 -6450 0
6451 6452 0
6307 -6452 0
-6307 -6451 0
6445 6446 0
-6445 -6446 0
